55
150
103	3
102	2
101	2
100	3
99	1
98	3
97	2
96	2
95	3
93	1
91	2
89	3
88	3
87	2
84	1
83	2
82	1
81	1
79	2
78	1
77	2
76	1
75	1
74	1
72	3
70	3
69	1
68	1
67	2
65	2
64	2
63	1
61	1
60	1
58	1
57	1
56	4
54	3
52	1
51	1
50	2
49	1
46	1
44	2
42	1
40	3
39	3
38	1
37	2
35	2
34	1
33	2
32	4
31	1
30	1
